94
28
0 28 30 31 33 36 38 39 41 42 45 46 48 49 52 53 55 58 59 60 61 65 68 71 72 73 75 77 78 81 83 87 90 93
1 28 31 32 34 35 39 41 42 43 45 46 48 49 52 53 58 59 60 61 62 64 65 68 70 71 72 73 75 77 78 81 82 83 85 91 93
2 28 29 30 32 35 36 39 41 43 48 49 54 56 57 58 59 62 63 65 66 67 68 71 72 73 74 75 77 78 81 83 87 88 90 91
3 28 29 30 31 32 33 36 37 39 41 42 43 45 46 47 48 49 50 52 54 55 58 59 60 61 63 65 66 67 68 71 72 74 75 77 78 81 82 83 87 90 93
4 28 30 31 33 39 42 43 45 46 48 49 51 52 53 58 59 61 62 63 64 67 68 71 72 77 78 83 85 86 87 88 91
5 28 30 31 34 35 36 37 39 41 42 43 45 46 48 52 54 57 58 59 60 61 63 64 67 71 74 75 77 78 81 83 87 88 90 91
6 30 33 35 36 37 39 42 45 48 49 52 58 60 61 63 66 67 68 71 72 73 74 81 83 87 88 90 92
7 29 31 32 33 35 37 39 41 42 46 48 49 52 58 60 61 62 65 66 68 71 74 75 77 78 80 81 83 84 85 86 87 88 90 91
8 28 29 31 32 35 37 39 41 42 44 45 46 47 48 49 50 52 56 57 58 60 61 63 64 65 68 71 72 74 75 82 83 87 88 91
9 28 30 31 33 35 36 37 43 45 46 47 48 49 50 52 53 55 58 62 63 65 67 72 73 74 75 77 81 83 87 90 91
10 28 30 32 35 37 41 43 45 50 52 53 56 61 68 71 72 73 74 75 77 78 83 88 89 90 91
11 32 35 37 39 42 43 45 46 49 50 52 57 59 60 61 63 64 70 71 73 74 75 76 77 78 83 87 91
12 28 32 36 37 41 43 46 47 48 49 53 54 57 59 62 63 66 67 70 71 73 74 76 77 81 87 88 91
13 29 30 31 33 35 36 37 41 43 45 46 50 52 55 57 59 61 63 64 66 75 78 83 84 87 88 90 91
14 28 30 39 47 48 49 50 52 53 55 57 61 63 68 73 77 78 81 83
15 30 31 32 33 35 36 39 41 42 45 47 49 53 54 56 58 61 69 71 72 73 74 76 78 79 83 87 88 90 93
16 29 32 36 37 39 40 46 47 48 52 54 57 59 67 68 72 73 77 81 86 87 88 90 91
17 32 33 36 37 39 43 45 48 50 52 57 58 61 63 66 70 75 88 90 91
18 30 31 35 42 45 49 53 62 66 67 68 81 87
19 28 30 37 39 41 43 46 50 52 55 56 57 60 61 65 66 67 71 73 75 76 77 80 83 90
20 28 29 31 32 34 43 45 46 47 52 54 55 56 65 66 70 73 75 78
21 29 38 41 46 58 59 65 67 68 78 80 83 84 88 93
22 35 38 53 62 65 66 67 79 90 91
23 31 33 51 52 53 58 62 79
24 36 43 48 71 78 85
25 28 37 48 57 61 72
26 40 57 66 72 84
27 37 49 80 81 90
